jobs  (incl. supersource/sink ):	52
RESOURCES
- renewable                 : 2 R
- nonrenewable              : 2 N
- doubly constrained        : 0 D
************************************************************************
PRECEDENCE RELATIONS:
jobnr.    #modes  #successors   successors
1	1	4		2 3 4 9 
2	9	5		15 13 11 6 5 
3	9	6		13 12 11 10 8 7 
4	9	4		11 8 7 6 
5	9	4		24 16 8 7 
6	9	4		24 20 16 14 
7	9	3		20 19 14 
8	9	7		26 23 22 20 19 18 17 
9	9	7		26 24 23 22 19 18 17 
10	9	2		19 14 
11	9	6		26 24 23 22 19 17 
12	9	6		26 23 22 19 18 17 
13	9	3		20 17 16 
14	9	5		26 23 22 18 17 
15	9	2		17 16 
16	9	4		26 23 21 19 
17	9	4		31 27 25 21 
18	9	6		31 30 29 28 27 25 
19	9	3		30 29 25 
20	9	6		38 34 32 31 30 29 
21	9	5		38 33 30 29 28 
22	9	5		38 34 30 29 28 
23	9	4		31 30 28 27 
24	9	3		30 28 25 
25	9	6		38 36 35 34 33 32 
26	9	6		43 41 40 39 38 35 
27	9	4		41 40 35 34 
28	9	3		37 35 32 
29	9	5		43 41 40 39 35 
30	9	3		39 37 36 
31	9	6		51 46 45 43 40 39 
32	9	5		46 45 43 41 39 
33	9	4		51 46 45 39 
34	9	3		45 43 37 
35	9	4		51 46 45 42 
36	9	4		46 45 43 42 
37	9	3		51 50 42 
38	9	2		46 42 
39	9	2		50 42 
40	9	2		50 42 
41	9	4		51 49 48 47 
42	9	1		44 
43	9	1		44 
44	9	3		49 48 47 
45	9	3		49 48 47 
46	9	1		50 
47	9	1		52 
48	9	1		52 
49	9	1		52 
50	9	1		52 
51	9	1		52 
52	1	0		
************************************************************************
REQUESTS/DURATIONS
jobnr.	mode	dur	R1	R2	N1	N2	
------------------------------------------------------------------------
1	1	0	0	0	0	0	
2	1	7	15	18	11	23	
	2	8	15	18	10	20	
	3	10	14	18	10	20	
	4	14	14	18	10	18	
	5	15	13	18	10	16	
	6	20	13	18	9	16	
	7	25	12	18	9	13	
	8	29	12	18	9	12	
	9	30	12	18	9	11	
3	1	2	29	23	27	17	
	2	10	27	20	27	14	
	3	12	26	17	27	13	
	4	19	25	17	27	12	
	5	22	22	15	27	12	
	6	23	22	12	27	11	
	7	27	19	12	27	10	
	8	28	18	10	27	8	
	9	30	17	8	27	8	
4	1	2	12	30	21	15	
	2	10	11	28	19	14	
	3	14	10	24	19	13	
	4	15	10	24	16	11	
	5	18	8	22	15	10	
	6	21	8	20	15	9	
	7	23	7	17	12	8	
	8	27	5	16	11	8	
	9	28	4	14	9	7	
5	1	5	16	9	28	28	
	2	6	14	9	25	27	
	3	8	13	8	23	27	
	4	11	10	8	17	26	
	5	14	9	7	15	25	
	6	16	7	7	14	25	
	7	17	7	7	9	25	
	8	21	5	6	7	24	
	9	29	2	6	4	24	
6	1	2	21	23	24	9	
	2	7	17	22	22	8	
	3	12	16	18	20	8	
	4	13	15	16	20	8	
	5	16	14	14	17	8	
	6	17	11	11	14	8	
	7	22	10	6	11	8	
	8	29	8	4	11	8	
	9	30	7	2	8	8	
7	1	2	27	22	16	27	
	2	3	26	20	14	26	
	3	5	24	19	13	26	
	4	6	24	19	12	26	
	5	10	23	17	11	25	
	6	11	22	15	11	24	
	7	12	21	14	10	23	
	8	13	19	12	9	23	
	9	24	19	12	8	22	
8	1	1	29	24	27	12	
	2	3	24	23	26	12	
	3	4	23	23	26	12	
	4	7	18	23	25	12	
	5	12	17	23	25	12	
	6	26	12	22	24	11	
	7	27	12	22	24	10	
	8	27	8	22	24	11	
	9	29	3	22	23	11	
9	1	4	27	20	19	28	
	2	12	24	19	17	27	
	3	13	23	18	17	26	
	4	14	22	16	15	26	
	5	15	21	16	14	26	
	6	16	18	15	13	25	
	7	21	16	14	13	25	
	8	23	14	12	12	24	
	9	26	13	11	11	24	
10	1	10	22	24	8	23	
	2	11	21	22	8	21	
	3	13	20	22	8	21	
	4	14	19	22	8	21	
	5	17	18	20	7	20	
	6	21	17	20	7	19	
	7	22	16	20	7	19	
	8	27	15	19	6	19	
	9	29	15	18	6	18	
11	1	1	29	20	13	23	
	2	3	27	19	12	20	
	3	4	26	16	10	17	
	4	6	25	15	10	14	
	5	16	25	13	9	13	
	6	20	24	9	8	11	
	7	21	23	9	7	9	
	8	25	22	5	5	7	
	9	27	21	3	5	3	
12	1	1	28	14	28	24	
	2	2	23	13	27	23	
	3	3	22	12	26	22	
	4	5	18	12	25	22	
	5	10	16	10	25	20	
	6	12	15	9	24	18	
	7	15	11	6	24	18	
	8	21	10	5	24	16	
	9	27	5	5	23	15	
13	1	2	11	14	29	22	
	2	6	11	13	28	21	
	3	8	11	12	27	17	
	4	11	11	12	26	14	
	5	12	11	12	25	13	
	6	17	11	11	24	11	
	7	25	11	10	22	8	
	8	26	11	10	21	6	
	9	30	11	10	21	4	
14	1	2	27	13	20	12	
	2	8	25	13	20	11	
	3	12	23	12	19	11	
	4	15	20	11	18	10	
	5	16	18	11	17	9	
	6	17	16	10	17	9	
	7	18	13	9	16	9	
	8	22	12	8	16	8	
	9	23	11	8	15	8	
15	1	3	20	14	25	21	
	2	4	19	11	25	21	
	3	6	19	11	25	20	
	4	9	17	9	25	21	
	5	10	17	9	25	20	
	6	16	16	8	25	20	
	7	19	15	6	25	20	
	8	20	15	5	25	19	
	9	23	14	5	25	19	
16	1	7	26	14	16	30	
	2	10	24	12	13	29	
	3	11	23	12	11	29	
	4	17	23	11	11	28	
	5	18	21	11	8	28	
	6	19	20	10	6	27	
	7	20	18	10	6	27	
	8	24	16	10	3	26	
	9	28	16	9	1	26	
17	1	6	21	20	26	16	
	2	7	19	19	25	15	
	3	11	17	19	25	13	
	4	12	17	19	23	12	
	5	14	12	19	23	12	
	6	22	10	18	21	10	
	7	23	10	18	19	10	
	8	27	6	18	18	8	
	9	29	5	18	18	8	
18	1	4	10	25	22	11	
	2	6	10	23	21	11	
	3	8	9	21	19	9	
	4	10	9	19	18	8	
	5	23	8	16	17	8	
	6	27	8	14	16	8	
	7	28	8	13	14	7	
	8	29	7	11	12	5	
	9	30	7	9	12	5	
19	1	1	20	10	19	29	
	2	7	19	9	17	28	
	3	14	19	9	17	27	
	4	20	19	9	16	28	
	5	21	19	9	15	28	
	6	23	19	9	15	27	
	7	26	19	9	14	28	
	8	27	19	9	13	28	
	9	28	19	9	12	28	
20	1	4	23	25	27	19	
	2	11	23	23	25	18	
	3	12	22	23	24	18	
	4	15	21	21	24	18	
	5	19	19	21	22	17	
	6	23	19	20	21	17	
	7	24	18	18	18	17	
	8	26	16	18	18	17	
	9	30	15	17	16	17	
21	1	17	6	28	29	3	
	2	18	6	28	28	2	
	3	19	6	27	27	2	
	4	23	5	26	26	2	
	5	24	5	26	25	2	
	6	25	5	26	25	1	
	7	26	5	25	24	1	
	8	27	4	24	23	2	
	9	28	4	24	23	1	
22	1	1	25	26	28	13	
	2	12	21	24	25	12	
	3	13	20	24	25	11	
	4	15	19	23	23	10	
	5	16	16	23	22	9	
	6	19	13	22	20	9	
	7	25	10	22	17	8	
	8	26	7	21	15	6	
	9	27	3	21	14	6	
23	1	6	25	24	24	24	
	2	7	21	24	23	23	
	3	8	20	24	21	23	
	4	9	18	23	21	22	
	5	10	15	23	18	22	
	6	16	12	23	17	21	
	7	20	9	23	17	21	
	8	22	7	22	16	19	
	9	27	3	22	14	19	
24	1	1	23	23	27	24	
	2	4	21	21	26	23	
	3	5	21	17	24	23	
	4	12	20	15	22	22	
	5	13	20	13	22	21	
	6	14	19	12	21	21	
	7	15	18	9	18	19	
	8	21	18	8	16	18	
	9	30	17	7	15	18	
25	1	1	28	21	27	27	
	2	4	28	20	26	26	
	3	13	28	19	23	23	
	4	14	28	19	22	21	
	5	17	28	17	20	19	
	6	19	28	17	18	17	
	7	24	28	17	17	15	
	8	25	28	15	14	11	
	9	27	28	15	14	10	
26	1	1	22	4	25	20	
	2	2	19	3	24	19	
	3	7	18	3	22	18	
	4	13	17	2	21	17	
	5	17	16	2	18	16	
	6	25	16	2	17	16	
	7	26	14	1	14	16	
	8	27	14	1	13	15	
	9	30	13	1	11	14	
27	1	5	21	18	12	25	
	2	7	21	18	12	23	
	3	9	20	18	10	22	
	4	10	20	17	10	22	
	5	16	19	17	8	21	
	6	17	19	16	7	21	
	7	23	18	15	5	19	
	8	27	18	15	4	18	
	9	30	17	15	3	18	
28	1	2	30	28	18	28	
	2	7	29	26	15	28	
	3	10	27	24	15	28	
	4	11	27	23	11	28	
	5	12	25	20	9	28	
	6	23	24	20	9	28	
	7	24	23	17	7	28	
	8	26	22	14	4	28	
	9	27	22	14	2	28	
29	1	1	8	29	4	29	
	2	3	8	29	4	25	
	3	4	7	28	3	25	
	4	13	6	27	3	23	
	5	14	6	27	3	19	
	6	15	5	26	2	16	
	7	17	4	25	2	15	
	8	26	3	24	1	13	
	9	30	3	24	1	11	
30	1	2	8	17	6	25	
	2	8	7	17	5	24	
	3	9	7	13	5	24	
	4	12	6	12	4	23	
	5	20	6	10	4	23	
	6	23	5	7	3	23	
	7	24	4	6	3	22	
	8	25	4	4	2	22	
	9	27	4	2	2	22	
31	1	5	24	6	23	3	
	2	13	21	5	22	3	
	3	17	20	5	22	3	
	4	20	20	4	22	3	
	5	21	17	3	22	3	
	6	24	15	3	21	2	
	7	25	14	2	21	2	
	8	26	14	2	21	1	
	9	30	12	2	21	2	
32	1	1	11	25	5	19	
	2	2	11	25	5	18	
	3	3	11	24	5	19	
	4	12	11	24	4	19	
	5	14	10	23	4	18	
	6	18	10	23	4	17	
	7	25	9	22	4	17	
	8	26	9	21	3	17	
	9	27	9	21	3	16	
33	1	14	28	30	10	29	
	2	18	27	29	10	26	
	3	19	24	28	10	24	
	4	21	24	28	9	21	
	5	23	20	27	9	16	
	6	26	19	26	9	14	
	7	27	19	25	9	13	
	8	28	16	25	8	9	
	9	29	15	24	8	7	
34	1	5	24	27	12	19	
	2	9	23	25	12	18	
	3	10	23	22	9	18	
	4	15	23	18	9	17	
	5	17	22	16	7	16	
	6	19	22	15	5	16	
	7	22	22	11	5	16	
	8	24	22	8	2	15	
	9	30	22	6	1	15	
35	1	4	27	9	22	13	
	2	7	26	9	22	11	
	3	8	26	9	18	10	
	4	10	25	9	17	9	
	5	11	24	8	13	8	
	6	15	22	8	11	5	
	7	16	22	8	9	4	
	8	17	21	8	4	4	
	9	19	20	8	2	3	
36	1	5	26	11	19	26	
	2	7	26	9	17	24	
	3	8	26	9	15	21	
	4	10	25	7	15	20	
	5	11	25	7	12	18	
	6	12	25	6	10	17	
	7	14	24	5	9	16	
	8	16	24	4	9	13	
	9	22	24	2	7	11	
37	1	1	27	19	30	22	
	2	2	25	19	27	20	
	3	4	23	18	24	19	
	4	7	22	18	24	19	
	5	8	20	16	21	16	
	6	12	18	16	19	16	
	7	16	15	16	17	13	
	8	20	15	14	16	12	
	9	25	13	14	15	12	
38	1	1	25	23	19	28	
	2	2	22	22	18	28	
	3	3	22	22	17	28	
	4	4	19	22	16	28	
	5	5	14	22	15	27	
	6	8	14	21	15	27	
	7	22	12	21	14	26	
	8	26	9	21	13	26	
	9	30	7	21	13	26	
39	1	4	4	25	18	26	
	2	5	4	23	15	25	
	3	6	4	21	15	24	
	4	8	3	21	12	24	
	5	17	3	19	11	24	
	6	18	2	17	9	23	
	7	19	2	16	8	22	
	8	23	1	15	7	22	
	9	28	1	14	5	22	
40	1	2	17	21	22	8	
	2	10	14	21	20	8	
	3	11	12	20	18	8	
	4	21	10	20	16	7	
	5	24	9	20	15	7	
	6	25	9	19	13	7	
	7	26	5	19	11	7	
	8	27	3	18	9	6	
	9	29	2	18	8	6	
41	1	7	22	18	18	28	
	2	8	19	17	17	27	
	3	11	17	16	16	27	
	4	19	15	16	13	27	
	5	21	12	15	11	26	
	6	22	11	15	9	26	
	7	24	8	14	7	25	
	8	29	4	14	6	25	
	9	30	2	14	4	25	
42	1	1	10	28	22	14	
	2	4	10	26	19	12	
	3	5	9	24	17	12	
	4	8	9	22	14	10	
	5	9	8	21	13	9	
	6	12	8	19	12	8	
	7	22	7	16	9	7	
	8	23	7	16	7	7	
	9	24	7	14	7	5	
43	1	2	20	28	10	28	
	2	4	19	24	9	25	
	3	6	18	21	9	21	
	4	7	18	20	7	17	
	5	9	17	17	6	16	
	6	11	15	12	5	11	
	7	22	14	11	4	11	
	8	23	12	7	4	6	
	9	25	11	5	2	5	
44	1	3	27	23	25	12	
	2	5	25	22	24	11	
	3	10	20	21	22	10	
	4	11	17	21	21	9	
	5	18	15	18	19	7	
	6	19	12	18	17	6	
	7	26	12	16	15	5	
	8	27	10	15	13	5	
	9	28	5	14	13	4	
45	1	14	13	25	19	10	
	2	16	12	25	19	10	
	3	18	10	24	17	9	
	4	19	9	22	16	9	
	5	20	9	22	14	8	
	6	22	7	21	11	8	
	7	24	6	19	10	8	
	8	26	6	18	8	7	
	9	30	5	17	7	7	
46	1	4	22	26	29	13	
	2	7	21	25	28	13	
	3	11	21	23	27	13	
	4	16	21	22	26	13	
	5	19	20	20	25	13	
	6	20	20	19	24	13	
	7	23	20	18	22	13	
	8	28	19	16	21	13	
	9	29	19	15	21	13	
47	1	1	5	7	28	26	
	2	7	5	7	26	25	
	3	14	5	5	25	25	
	4	15	5	4	25	25	
	5	19	4	4	23	25	
	6	21	4	4	21	25	
	7	24	4	2	19	25	
	8	27	3	1	18	25	
	9	29	3	1	16	25	
48	1	1	20	18	12	11	
	2	5	19	15	11	10	
	3	7	15	15	10	9	
	4	8	15	13	10	8	
	5	9	12	11	9	7	
	6	16	9	9	8	6	
	7	27	5	8	8	5	
	8	28	5	7	6	3	
	9	30	1	6	6	3	
49	1	4	28	29	21	18	
	2	5	25	29	19	17	
	3	6	23	29	19	16	
	4	14	21	28	17	16	
	5	15	20	28	14	15	
	6	23	19	27	12	14	
	7	26	15	27	7	14	
	8	27	14	26	5	13	
	9	28	13	26	5	13	
50	1	2	29	21	6	23	
	2	8	28	20	5	23	
	3	13	27	18	5	23	
	4	15	26	16	4	23	
	5	16	26	13	3	23	
	6	19	26	11	3	23	
	7	20	25	9	2	23	
	8	23	23	5	2	23	
	9	30	23	4	2	23	
51	1	1	20	18	27	12	
	2	5	19	17	27	10	
	3	6	17	15	24	8	
	4	11	12	14	23	8	
	5	14	10	13	22	7	
	6	15	10	10	20	6	
	7	26	7	8	20	4	
	8	27	3	8	18	4	
	9	28	1	7	17	3	
52	1	0	0	0	0	0	
************************************************************************

 RESOURCE AVAILABILITIES 
	R 1	R 2	N 1	N 2
	56	54	652	743

************************************************************************
